(set-option :produce-models true); benchmark generated from python API
(set-info :status unknown)
(declare-fun l_1_0_9 () Real)
(declare-fun l_1_0_8 () Real)
(declare-fun l_1_0_7 () Real)
(declare-fun l_1_0_6 () Real)
(declare-fun l_1_0_5 () Real)
(declare-fun l_1_0_4 () Real)
(declare-fun l_1_0_3 () Real)
(declare-fun l_1_0_2 () Real)
(declare-fun l_1_0_1 () Real)
(declare-fun _a_0_ () Real)
(declare-fun l_1_0_11 () Real)
(declare-fun l_1_0_10 () Real)
(declare-fun _a_1_ () Real)
(declare-fun _a_2_ () Real)
(declare-fun l_1_1_16 () Real)
(declare-fun l_1_1_15 () Real)
(declare-fun l_1_1_9 () Real)
(declare-fun l_1_1_4 () Real)
(declare-fun l_1_1_13 () Real)
(declare-fun l_1_1_12 () Real)
(declare-fun l_1_1_1 () Real)
(declare-fun l_1_1_5 () Real)
(declare-fun l_1_1_17 () Real)
(declare-fun l_1_1_8 () Real)
(declare-fun l_1_1_7 () Real)
(declare-fun l_1_1_6 () Real)
(declare-fun l_1_1_3 () Real)
(declare-fun l_1_1_2 () Real)
(declare-fun l_1_1_14 () Real)
(declare-fun l_1_1_11 () Real)
(declare-fun l_1_1_10 () Real)
(declare-fun l_1_2_8 () Real)
(declare-fun l_1_2_7 () Real)
(declare-fun l_1_2_5 () Real)
(declare-fun l_1_2_4 () Real)
(declare-fun l_1_2_3 () Real)
(declare-fun l_1_2_15 () Real)
(declare-fun l_1_2_14 () Real)
(declare-fun l_1_2_13 () Real)
(declare-fun l_1_2_11 () Real)
(declare-fun l_1_2_1 () Real)
(declare-fun l_1_2_9 () Real)
(declare-fun l_1_2_6 () Real)
(declare-fun l_1_2_2 () Real)
(declare-fun l_1_2_12 () Real)
(declare-fun l_1_2_10 () Real)
(declare-fun l_1_2_17 () Real)
(declare-fun l_1_2_16 () Real)
(assert
 (let ((?x105 (* l_1_0_9 l_1_0_9)))
 (let ((?x28 (- (- (- _a_0_ (* 1.0 l_1_0_1)) (* 1.0 l_1_0_2)) l_1_0_3)))
 (let ((?x23 (- (- (- (- ?x28 (* 1.0 l_1_0_4)) l_1_0_5) l_1_0_6) (* 1.0 l_1_0_7))))
 (= (- (- ?x23 l_1_0_8) ?x105) 0.0)))))
(assert
 (let ((?x298 (* 2.0 l_1_0_2)))
 (let ((?x296 (* l_1_0_11 l_1_0_11)))
 (let ((?x299 (+ (+ (- (- (+ _a_1_ l_1_0_1) (* l_1_0_10 l_1_0_10)) ?x296) ?x298) l_1_0_4)))
 (= (+ ?x299 l_1_0_7) 0.0)))))
(assert
 (= (- _a_2_ (* (* 2.0 l_1_0_10) l_1_0_9)) 0.0))
(assert
 (= (- l_1_0_2) 0.0))
(assert
 (>= l_1_0_1 0.0))
(assert
 (>= l_1_0_2 0.0))
(assert
 (>= l_1_0_3 0.0))
(assert
 (>= l_1_0_4 0.0))
(assert
 (>= l_1_0_5 0.0))
(assert
 (>= l_1_0_6 0.0))
(assert
 (>= l_1_0_7 0.0))
(assert
 (>= l_1_0_8 0.0))
(assert
 (>= l_1_0_9 0.0))
(assert
 (>= l_1_0_11 0.0))
(assert
 (let ((?x234 (* _a_2_ l_1_1_9)))
 (let ((?x230 (* _a_2_ l_1_1_13)))
 (let ((?x253 (* _a_2_ l_1_1_12)))
 (let ((?x160 (+ (* (* (* (- 2.0) _a_0_) _a_2_) l_1_1_5) (* (* 1.0 _a_2_) l_1_1_1))))
 (let ((?x208 (- (+ (- (- ?x160 ?x253) ?x230) (* (* 1.0 _a_2_) l_1_1_4)) ?x234)))
 (= (+ (- ?x208 (* (* 2.0 l_1_1_15) l_1_1_16)) 8.0) 0.0)))))))
(assert
 (let ((?x136 (* l_1_1_17 l_1_1_17)))
 (let ((?x133 (* l_1_1_16 l_1_1_16)))
 (let ((?x131 (* _a_1_ l_1_1_9)))
 (let ((?x127 (* _a_1_ l_1_1_13)))
 (let ((?x130 (+ (- (- (* (* 1.0 _a_1_) l_1_1_1) (* _a_1_ l_1_1_12)) ?x127) (* (* 1.0 _a_1_) l_1_1_4))))
 (let ((?x120 (- (- (- (- ?x130 ?x131) ?x133) ?x136) (* l_1_1_5 (+ (* (* 2.0 _a_0_) _a_1_) (* _a_2_ _a_2_))))))
 (= (- ?x120 1.0) 0.0))))))))
(assert
 (let ((?x79 (* l_1_1_15 l_1_1_15)))
 (let ((?x200 (* _a_0_ l_1_1_9)))
 (let ((?x188 (* _a_0_ l_1_1_13)))
 (let ((?x203 (+ (- (- (* (* 1.0 _a_0_) l_1_1_1) (* _a_0_ l_1_1_12)) ?x188) (* (* 1.0 _a_0_) l_1_1_4))))
 (let ((?x86 (- (+ (- (- ?x203 ?x200) (* 1.0 l_1_1_10)) (* 1.0 l_1_1_11)) l_1_1_14)))
 (let ((?x102 (- (- (- (- ?x86 ?x79) l_1_1_2) l_1_1_3) (* (* l_1_1_5 _a_0_) _a_0_))))
 (let ((?x145 (- (+ (+ (- ?x102 l_1_1_6) (* 1.0 l_1_1_7)) (* 1.0 l_1_1_8)) 15.0)))
 (= ?x145 0.0)))))))))
(assert
 (= (* (* (- l_1_1_5) _a_1_) _a_1_) 0.0))
(assert
 (= (* (* (* (- 2.0) _a_1_) _a_2_) l_1_1_5) 0.0))
(assert
 (>= l_1_1_1 0.0))
(assert
 (>= l_1_1_2 0.0))
(assert
 (>= l_1_1_3 0.0))
(assert
 (>= l_1_1_4 0.0))
(assert
 (>= l_1_1_5 0.0))
(assert
 (>= l_1_1_6 0.0))
(assert
 (>= l_1_1_7 0.0))
(assert
 (>= l_1_1_8 0.0))
(assert
 (>= l_1_1_9 0.0))
(assert
 (>= l_1_1_10 0.0))
(assert
 (>= l_1_1_11 0.0))
(assert
 (>= l_1_1_12 0.0))
(assert
 (>= l_1_1_13 0.0))
(assert
 (>= l_1_1_14 0.0))
(assert
 (>= l_1_1_15 0.0))
(assert
 (>= l_1_1_17 0.0))
(assert
 (let ((?x257 (* l_1_2_15 l_1_2_15)))
 (let ((?x80 (* _a_0_ l_1_2_9)))
 (let ((?x244 (* _a_0_ l_1_2_2)))
 (let ((?x235 (- (- (* (- _a_0_) l_1_2_10) (* (* 1.0 _a_0_) l_1_2_12)) ?x244)))
 (let ((?x224 (- (+ (- (- ?x235 (* (* 1.0 _a_0_) l_1_2_6)) ?x80) _a_0_) (* 1.0 l_1_2_1))))
 (let ((?x259 (- (- (- (- (- ?x224 l_1_2_11) (* 1.0 l_1_2_13)) l_1_2_14) ?x257) l_1_2_3)))
 (let ((?x393 (- (- (- ?x259 (* 1.0 l_1_2_4)) (* (* l_1_2_5 _a_0_) _a_0_)) (* 1.0 l_1_2_7))))
 (= (- ?x393 l_1_2_8) 0.0)))))))))
(assert
 (let ((?x467 (* l_1_2_17 l_1_2_17)))
 (let ((?x465 (* l_1_2_16 l_1_2_16)))
 (let ((?x463 (* (/ 3.0 50.0) _a_2_)))
 (let ((?x460 (* (/ 529.0 625.0) _a_1_)))
 (let ((?x457 (* _a_1_ l_1_2_9)))
 (let ((?x453 (* _a_1_ l_1_2_2)))
 (let ((?x454 (- (- (* (- _a_1_) l_1_2_10) (* (* 1.0 _a_1_) l_1_2_12)) ?x453)))
 (let ((?x464 (+ (+ (- (- ?x454 (* (* 1.0 _a_1_) l_1_2_6)) ?x457) ?x460) ?x463)))
 (let ((?x470 (- (- (- ?x464 ?x465) ?x467) (* l_1_2_5 (+ (* (* 2.0 _a_0_) _a_1_) (* _a_2_ _a_2_))))))
 (= ?x470 0.0)))))))))))
(assert
 (= (- (* (- (/ 37.0 2500.0)) _a_1_) (* (* l_1_2_5 _a_1_) _a_1_)) 0.0))
(assert
 (let ((?x532 (* (/ 1.0 100.0) _a_2_)))
 (let ((?x533 (- (+ (* (* (* (- 2.0) _a_1_) _a_2_) l_1_2_5) (* (/ 69.0 625.0) _a_1_)) ?x532)))
 (= ?x533 0.0))))
(assert
 (= (* (/ 1.0 10000.0) _a_1_) 0.0))
(assert
 (= (* (- (/ 3.0 2500.0)) _a_1_) 0.0))
(assert
 (let ((?x565 (* (/ 23.0 25.0) _a_2_)))
 (let ((?x562 (* _a_2_ l_1_2_9)))
 (let ((?x558 (* _a_2_ l_1_2_2)))
 (let ((?x554 (* _a_2_ l_1_2_10)))
 (let ((?x557 (- (- (* (* (* (- 2.0) _a_0_) _a_2_) l_1_2_5) ?x554) (* (* 1.0 _a_2_) l_1_2_12))))
 (let ((?x566 (+ (- (- (- ?x557 ?x558) (* (* 1.0 _a_2_) l_1_2_6)) ?x562) ?x565)))
 (= (- ?x566 (* (* 2.0 l_1_2_15) l_1_2_16)) 0.0))))))))
(assert
 (>= l_1_2_1 0.0))
(assert
 (>= l_1_2_2 0.0))
(assert
 (>= l_1_2_3 0.0))
(assert
 (>= l_1_2_4 0.0))
(assert
 (>= l_1_2_5 0.0))
(assert
 (>= l_1_2_6 0.0))
(assert
 (>= l_1_2_7 0.0))
(assert
 (>= l_1_2_8 0.0))
(assert
 (>= l_1_2_9 0.0))
(assert
 (>= l_1_2_10 0.0))
(assert
 (>= l_1_2_11 0.0))
(assert
 (>= l_1_2_12 0.0))
(assert
 (>= l_1_2_13 0.0))
(assert
 (>= l_1_2_14 0.0))
(assert
 (>= l_1_2_15 0.0))
(assert
 (>= l_1_2_17 0.0))
(check-sat)
(get-model)